pair_style lj/cut/coul/long 12.0 
pair_modify mix geometric
kspace_style pppm 1.0e-5
bond_style harmonic
angle_style harmonic
dihedral_style opls
improper_style cvff
special_bonds lj/coul 0.0 0.0 0.5


